p cnf 169 436
a 20 22 52 59 2 4 7 10 16 18 32 34 41 133 146 162 1 15 31 40 0
d 48 20 22 0
d 100 1 15 0
d 25 52 59 0
d 125 31 40 0
d 3 2 0
d 5 4 0
d 6 2 4 0
d 8 7 0
d 9 2 4 7 0
d 11 10 0
d 12 2 4 7 10 0
d 13 1 2 4 7 10 0
d 14 1 2 4 7 10 0
d 17 16 0
d 19 16 18 0
d 21 20 0
d 23 22 0
d 24 20 22 0
d 26 20 22 52 59 0
d 27 16 18 20 22 52 59 0
d 28 15 16 18 20 22 52 59 0
d 29 15 16 18 20 22 52 59 0
d 30 1 2 4 7 10 15 16 18 20 22 52 59 0
d 33 32 0
d 35 34 0
d 36 32 34 0
d 37 31 32 34 0
d 38 31 32 34 0
d 39 1 2 4 7 10 15 16 18 20 22 52 59 31 32 34 0
d 42 41 20 0
d 43 41 20 22 0
d 44 40 41 20 22 0
d 45 40 41 20 22 0
d 46 1 2 4 7 10 15 16 18 20 22 52 59 31 32 34 40 41 0
d 47 20 0
d 49 20 22 0
d 50 20 22 0
d 51 20 22 0
d 53 52 20 0
d 54 52 20 22 0
d 55 52 20 22 0
d 56 20 22 52 0
d 57 52 0
d 58 20 22 52 0
d 60 20 22 52 59 0
d 61 20 22 52 59 0
d 62 20 22 52 59 0
d 63 2 20 0
d 64 2 20 22 0
d 65 52 59 2 20 22 0
d 66 59 0
d 67 52 59 0
d 68 52 59 2 20 22 0
d 69 52 59 2 20 22 0
d 70 20 22 52 59 2 0
d 71 2 4 0
d 72 2 4 20 22 52 59 0
d 73 20 22 52 59 0
d 74 2 4 20 22 52 59 0
d 75 2 4 20 22 52 59 0
d 76 20 22 52 59 2 4 0
d 77 7 20 0
d 78 7 20 22 0
d 79 52 59 2 0
d 80 52 59 2 4 0
d 81 7 20 22 52 59 2 4 0
d 82 52 59 2 0
d 83 52 59 2 4 0
d 84 7 20 22 52 59 2 4 0
d 85 7 20 22 52 59 2 4 0
d 86 20 22 52 59 2 4 7 0
d 87 2 4 7 10 0
d 88 20 22 52 59 2 4 7 10 0
d 89 20 22 52 59 2 4 7 10 0
d 90 20 22 52 59 2 4 7 10 0
d 91 20 22 52 59 2 4 7 10 0
d 92 7 10 0
d 93 16 20 0
d 94 16 20 22 0
d 95 7 10 16 20 22 0
d 96 52 59 2 4 7 10 16 20 22 0
d 97 52 59 2 4 7 10 16 20 22 0
d 98 52 59 2 4 7 10 16 20 22 0
d 99 20 22 52 59 2 4 7 10 16 0
d 101 16 18 20 22 52 59 0
d 102 2 4 7 10 16 18 20 22 52 59 0
d 103 1 15 2 4 7 10 16 18 20 22 52 59 0
d 104 20 22 52 59 2 4 7 10 16 1 15 18 0
d 105 7 10 16 0
d 106 18 0
d 107 7 10 16 18 0
d 108 32 20 0
d 109 32 20 22 0
d 110 32 20 22 52 59 2 4 0
d 111 7 10 16 18 32 20 22 52 59 2 4 0
d 112 32 20 22 52 59 2 4 0
d 113 7 10 16 18 32 20 22 52 59 2 4 0
d 114 7 10 16 18 32 20 22 52 59 2 4 0
d 115 20 22 52 59 2 4 7 10 16 1 15 18 32 0
d 116 16 18 0
d 117 16 18 32 0
d 118 16 18 32 34 0
d 119 20 22 52 59 2 4 7 10 0
d 120 16 18 32 34 20 22 52 59 2 4 7 10 0
d 121 20 22 52 59 2 4 7 10 0
d 122 16 18 32 34 20 22 52 59 2 4 7 10 0
d 123 16 18 32 34 20 22 52 59 2 4 7 10 0
d 124 20 22 52 59 2 4 7 10 16 1 15 18 32 34 0
d 126 52 59 2 4 7 10 16 18 0
d 127 31 40 52 59 2 4 7 10 16 18 0
d 128 32 34 41 20 22 0
d 129 52 59 2 4 7 10 16 18 0
d 130 32 34 41 20 22 52 59 2 4 7 10 16 18 0
d 131 31 40 52 59 2 4 7 10 16 18 32 34 41 20 22 0
d 132 20 22 52 59 2 4 7 10 16 1 15 18 32 34 31 40 41 0
d 134 41 133 0
d 135 41 133 0
d 136 41 133 20 22 52 59 0
d 137 16 18 32 34 0
d 138 2 4 7 10 16 18 32 34 0
d 139 41 133 20 22 52 59 2 4 7 10 16 18 32 34 0
d 140 41 0
d 141 41 133 0
d 142 41 133 20 22 52 59 0
d 143 41 133 20 22 52 59 2 4 7 10 16 18 32 34 0
d 144 41 133 20 22 52 59 2 4 7 10 16 18 32 34 0
d 145 20 22 52 59 2 4 7 10 16 1 15 18 32 34 31 40 41 133 0
d 147 146 20 0
d 148 146 20 22 0
d 149 146 20 22 52 59 2 4 0
d 150 32 34 41 0
d 151 133 0
d 152 32 34 41 133 0
d 153 7 10 16 18 32 34 41 133 0
d 154 146 20 22 52 59 2 4 7 10 16 18 32 34 41 133 0
d 155 146 20 22 52 59 2 4 0
d 156 146 20 22 52 59 2 4 7 10 16 18 32 34 41 133 0
d 157 146 20 22 52 59 2 4 7 10 16 18 32 34 41 133 0
d 158 20 22 52 59 2 4 7 10 16 1 15 18 32 34 31 40 41 133 146 0
d 159 41 133 0
d 160 146 0
d 161 41 133 146 0
d 163 41 133 146 162 0
d 164 16 18 32 34 41 133 146 162 0
d 165 20 22 52 59 2 4 7 10 16 18 32 34 41 133 146 162 0
d 166 20 22 52 59 2 4 7 10 16 18 32 34 41 133 146 162 0
d 167 20 22 52 59 2 4 7 10 16 18 32 34 41 133 146 162 0
d 168 20 22 52 59 2 4 7 10 16 1 15 18 32 34 31 40 41 133 146 162 0
d 169 1 2 4 7 10 15 16 18 20 22 52 59 31 32 34 40 41 133 146 162 0
3 2 0
-3 -2 0
5 4 0
-5 -4 0
-6 3 0
-6 5 0
6 -3 -5 0
8 7 0
-8 -7 0
-9 6 0
-9 8 0
9 -6 -8 0
11 10 0
-11 -10 0
-12 9 0
-12 11 0
12 -9 -11 0
13 -1 -12 0
13 1 12 0
-13 -1 12 0
-13 1 -12 0
14 13 0
-14 -13 0
17 16 0
-17 -16 0
-19 17 0
-19 18 0
19 -17 -18 0
21 20 0
-21 -20 0
23 22 0
-23 -22 0
-24 21 0
-24 23 0
24 -21 -23 0
-26 24 0
-26 25 0
26 -24 -25 0
-27 19 0
-27 26 0
27 -19 -26 0
28 -15 -27 0
28 15 27 0
-28 -15 27 0
-28 15 -27 0
29 28 0
-29 -28 0
30 -14 0
30 -29 0
-30 14 29 0
33 32 0
-33 -32 0
35 34 0
-35 -34 0
-36 33 0
-36 35 0
36 -33 -35 0
37 -31 -36 0
37 31 36 0
-37 -31 36 0
-37 31 -36 0
38 37 0
-38 -37 0
39 -30 0
39 -38 0
-39 30 38 0
-42 41 0
-42 21 0
42 -41 -21 0
-43 42 0
-43 23 0
43 -42 -23 0
44 -40 -43 0
44 40 43 0
-44 -40 43 0
-44 40 -43 0
45 44 0
-45 -44 0
46 -39 0
46 -45 0
-46 39 45 0
47 -20 -20 0
47 20 20 0
-47 -20 20 0
-47 20 -20 0
-49 21 0
-49 22 0
49 -21 -22 0
50 -48 -49 0
50 48 49 0
-50 -48 49 0
-50 48 -49 0
-51 47 0
-51 50 0
51 -47 -50 0
-53 52 0
-53 21 0
53 -52 -21 0
-54 53 0
-54 23 0
54 -53 -23 0
55 -54 -54 0
55 54 54 0
-55 -54 54 0
-55 54 -54 0
-56 51 0
-56 55 0
56 -51 -55 0
57 52 0
-57 -52 0
-58 24 0
-58 57 0
58 -24 -57 0
-60 58 0
-60 59 0
60 -58 -59 0
61 -60 -60 0
61 60 60 0
-61 -60 60 0
-61 60 -60 0
-62 56 0
-62 61 0
62 -56 -61 0
-63 2 0
-63 21 0
63 -2 -21 0
-64 63 0
-64 23 0
64 -63 -23 0
-65 25 0
-65 64 0
65 -25 -64 0
66 59 0
-66 -59 0
-67 57 0
-67 66 0
67 -57 -66 0
-68 67 0
-68 64 0
68 -67 -64 0
69 -65 -68 0
69 65 68 0
-69 -65 68 0
-69 65 -68 0
-70 62 0
-70 69 0
70 -62 -69 0
-71 3 0
-71 4 0
71 -3 -4 0
-72 71 0
-72 26 0
72 -71 -26 0
-73 58 0
-73 66 0
73 -58 -66 0
-74 71 0
-74 73 0
74 -71 -73 0
75 -72 -74 0
75 72 74 0
-75 -72 74 0
-75 72 -74 0
-76 70 0
-76 75 0
76 -70 -75 0
-77 7 0
-77 21 0
77 -7 -21 0
-78 77 0
-78 23 0
78 -77 -23 0
-79 25 0
-79 3 0
79 -25 -3 0
-80 79 0
-80 5 0
80 -79 -5 0
-81 78 0
-81 80 0
81 -78 -80 0
-82 67 0
-82 3 0
82 -67 -3 0
-83 82 0
-83 5 0
83 -82 -5 0
-84 78 0
-84 83 0
84 -78 -83 0
85 -81 -84 0
85 81 84 0
-85 -81 84 0
-85 81 -84 0
-86 76 0
-86 85 0
86 -76 -85 0
-87 9 0
-87 10 0
87 -9 -10 0
-88 26 0
-88 87 0
88 -26 -87 0
-89 73 0
-89 87 0
89 -73 -87 0
90 -88 -89 0
90 88 89 0
-90 -88 89 0
-90 88 -89 0
-91 86 0
-91 90 0
91 -86 -90 0
-92 8 0
-92 11 0
92 -8 -11 0
-93 16 0
-93 21 0
93 -16 -21 0
-94 93 0
-94 23 0
94 -93 -23 0
-95 92 0
-95 94 0
95 -92 -94 0
-96 80 0
-96 95 0
96 -80 -95 0
-97 83 0
-97 95 0
97 -83 -95 0
98 -96 -97 0
98 96 97 0
-98 -96 97 0
-98 96 -97 0
-99 91 0
-99 98 0
99 -91 -98 0
-101 19 0
-101 73 0
101 -19 -73 0
-102 12 0
-102 101 0
102 -12 -101 0
103 -100 -102 0
103 100 102 0
-103 -100 102 0
-103 100 -102 0
-104 99 0
-104 103 0
104 -99 -103 0
-105 92 0
-105 17 0
105 -92 -17 0
106 18 0
-106 -18 0
-107 105 0
-107 106 0
107 -105 -106 0
-108 32 0
-108 21 0
108 -32 -21 0
-109 108 0
-109 23 0
109 -108 -23 0
-110 109 0
-110 80 0
110 -109 -80 0
-111 107 0
-111 110 0
111 -107 -110 0
-112 109 0
-112 83 0
112 -109 -83 0
-113 107 0
-113 112 0
113 -107 -112 0
114 -111 -113 0
114 111 113 0
-114 -111 113 0
-114 111 -113 0
-115 104 0
-115 114 0
115 -104 -114 0
-116 17 0
-116 106 0
116 -17 -106 0
-117 116 0
-117 33 0
117 -116 -33 0
-118 117 0
-118 34 0
118 -117 -34 0
-119 26 0
-119 12 0
119 -26 -12 0
-120 118 0
-120 119 0
120 -118 -119 0
-121 73 0
-121 12 0
121 -73 -12 0
-122 118 0
-122 121 0
122 -118 -121 0
123 -120 -122 0
123 120 122 0
-123 -120 122 0
-123 120 -122 0
-124 115 0
-124 123 0
124 -115 -123 0
-126 80 0
-126 107 0
126 -80 -107 0
-127 125 0
-127 126 0
127 -125 -126 0
-128 36 0
-128 43 0
128 -36 -43 0
-129 83 0
-129 107 0
129 -83 -107 0
-130 128 0
-130 129 0
130 -128 -129 0
131 -127 -130 0
131 127 130 0
-131 -127 130 0
-131 127 -130 0
-132 124 0
-132 131 0
132 -124 -131 0
134 -41 0
134 -133 0
-134 41 133 0
135 134 0
-135 -134 0
-136 135 0
-136 26 0
136 -135 -26 0
-137 117 0
-137 35 0
137 -117 -35 0
-138 12 0
-138 137 0
138 -12 -137 0
-139 136 0
-139 138 0
139 -136 -138 0
140 41 0
-140 -41 0
-141 140 0
-141 133 0
141 -140 -133 0
-142 141 0
-142 73 0
142 -141 -73 0
-143 142 0
-143 138 0
143 -142 -138 0
144 -139 -143 0
144 139 143 0
-144 -139 143 0
-144 139 -143 0
-145 132 0
-145 144 0
145 -132 -144 0
-147 146 0
-147 21 0
147 -146 -21 0
-148 147 0
-148 23 0
148 -147 -23 0
-149 148 0
-149 80 0
149 -148 -80 0
-150 36 0
-150 140 0
150 -36 -140 0
151 133 0
-151 -133 0
-152 150 0
-152 151 0
152 -150 -151 0
-153 107 0
-153 152 0
153 -107 -152 0
-154 149 0
-154 153 0
154 -149 -153 0
-155 148 0
-155 83 0
155 -148 -83 0
-156 155 0
-156 153 0
156 -155 -153 0
157 -154 -156 0
157 154 156 0
-157 -154 156 0
-157 154 -156 0
-158 145 0
-158 157 0
158 -145 -157 0
-159 140 0
-159 151 0
159 -140 -151 0
160 146 0
-160 -146 0
-161 159 0
-161 160 0
161 -159 -160 0
-163 161 0
-163 162 0
163 -161 -162 0
-164 137 0
-164 163 0
164 -137 -163 0
-165 119 0
-165 164 0
165 -119 -164 0
-166 121 0
-166 164 0
166 -121 -164 0
167 -165 -166 0
167 165 166 0
-167 -165 166 0
-167 165 -166 0
-168 158 0
-168 167 0
168 -158 -167 0
169 -46 0
169 -168 0
-169 46 168 0
169 0
